2025-10-11 23:59:02,844 - INFO - 📌 第一个 epoch：默认所有模块使用 checkpoint
2025-10-12 00:01:26,511 - INFO - Epoch 1 completed in 143.688283 seconds
2025-10-12 00:01:59,525 - INFO - torch.cuda.max_memory_reserved() : 15.2421875
2025-10-12 00:04:24,524 - INFO - 
[🔁 拟合反向传播时间模型]
2025-10-12 00:04:24,524 - INFO - 总反向传播时间: 144.478726s
2025-10-12 00:04:24,525 - INFO - 拟合模型: backward_total ≈ 2 × (A + B) + b
2025-10-12 00:04:24,525 - INFO - A = 124.327015, B = 12.071351, b = 8.080360s
2025-10-12 00:04:24,570 - INFO - Set parameter LicenseID to value 2706656
2025-10-12 00:04:24,578 - INFO - Set parameter LogToConsole to value 1
2025-10-12 00:04:24,578 - INFO - Set parameter LogFile to value ""
2025-10-12 00:04:24,578 - INFO - Set parameter Threads to value 12
2025-10-12 00:04:24,578 - INFO - Set parameter TimeLimit to value 3600
2025-10-12 00:04:24,578 - INFO - Set parameter OptimalityTol to value 0.0001
2025-10-12 00:04:24,578 - INFO - Set parameter IntFeasTol to value 1e-05
2025-10-12 00:04:24,578 - INFO - Set parameter StartNodeLimit to value 10000000
2025-10-12 00:04:24,637 - INFO - Set parameter TimeLimit to value 3600
2025-10-12 00:04:24,637 - INFO - 
2025-10-12 00:04:24,637 - INFO - 
2025-10-12 00:04:24,637 - INFO - Restarting solve
2025-10-12 00:04:24,637 - INFO - 
2025-10-12 00:04:24,637 - INFO - 
2025-10-12 00:04:24,639 - INFO - Gurobi Optimizer version 12.0.3 build v12.0.3rc0 (linux64 - "Ubuntu 20.04.6 LTS")
2025-10-12 00:04:24,640 - INFO - 
2025-10-12 00:04:24,640 - INFO - CPU model: Intel(R) Xeon(R) Platinum 8260 CPU @ 2.40GHz, instruction set [SSE2|AVX|AVX2|AVX512]
2025-10-12 00:04:24,640 - INFO - Thread count: 48 physical cores, 96 logical processors, using up to 12 threads
2025-10-12 00:04:24,640 - INFO - 
2025-10-12 00:04:24,640 - INFO - Non-default parameters:
2025-10-12 00:04:24,640 - INFO - TimeLimit  3600
2025-10-12 00:04:24,640 - INFO - OptimalityTol  0.0001
2025-10-12 00:04:24,640 - INFO - StartNodeLimit  10000000
2025-10-12 00:04:24,640 - INFO - Threads  12
2025-10-12 00:04:24,640 - INFO - 
2025-10-12 00:04:24,640 - INFO - Optimize a model with 5603 rows, 3584 columns and 15200 nonzeros
2025-10-12 00:04:24,640 - INFO - Model fingerprint: 0xf82c8546
2025-10-12 00:04:24,640 - INFO - Variable types: 1024 continuous, 2560 integer (2560 binary)
2025-10-12 00:04:24,640 - INFO - Coefficient statistics:
2025-10-12 00:04:24,640 - INFO -   Matrix range     [1e+00, 5e+15]
2025-10-12 00:04:24,640 - INFO -   Objective range  [6e+04, 2e+06]
2025-10-12 00:04:24,640 - INFO -   Bounds range     [1e+00, 2e+16]
2025-10-12 00:04:24,640 - INFO -   RHS range        [1e+00, 2e+16]
2025-10-12 00:04:24,641 - INFO - Warning: Model contains large matrix coefficient range
2025-10-12 00:04:24,641 - INFO - Warning: Model contains large rhs
2025-10-12 00:04:24,641 - INFO - Warning: Model contains large bounds
2025-10-12 00:04:24,641 - INFO -          Consider reformulating model or setting NumericFocus parameter
2025-10-12 00:04:24,641 - INFO -          to avoid numerical issues.
2025-10-12 00:04:24,659 - INFO - Presolve removed 4283 rows and 1964 columns
2025-10-12 00:04:24,659 - INFO - Presolve time: 0.02s
2025-10-12 00:04:24,659 - INFO - Presolved: 1320 rows, 1620 columns, 4514 nonzeros
2025-10-12 00:04:24,661 - INFO - Variable types: 0 continuous, 1620 integer (1095 binary)
2025-10-12 00:04:24,673 - INFO - 
2025-10-12 00:04:24,673 - INFO - Root relaxation: objective 2.535361e+07, 441 iterations, 0.00 seconds (0.00 work units)
2025-10-12 00:04:24,680 - INFO - 
2025-10-12 00:04:24,680 - INFO -     Nodes    |    Current Node    |     Objective Bounds      |     Work
2025-10-12 00:04:24,680 - INFO -  Expl Unexpl |  Obj  Depth IntInf | Incumbent    BestBd   Gap | It/Node Time
2025-10-12 00:04:24,680 - INFO - 
2025-10-12 00:04:24,680 - INFO -      0     0 2.5354e+07    0  122          - 2.5354e+07      -     -    0s
2025-10-12 00:04:24,716 - INFO -      0     0 2.5654e+07    0  134          - 2.5654e+07      -     -    0s
2025-10-12 00:04:24,733 - INFO -      0     0 2.5700e+07    0   79          - 2.5700e+07      -     -    0s
2025-10-12 00:04:24,749 - INFO -      0     0 2.5748e+07    0  139          - 2.5748e+07      -     -    0s
2025-10-12 00:04:24,763 - INFO -      0     0 2.5751e+07    0   96          - 2.5751e+07      -     -    0s
2025-10-12 00:04:24,778 - INFO -      0     0 2.5751e+07    0   94          - 2.5751e+07      -     -    0s
2025-10-12 00:04:24,792 - INFO -      0     0 2.5751e+07    0  217          - 2.5751e+07      -     -    0s
2025-10-12 00:04:24,847 - INFO -      0     2 2.5751e+07    0  217          - 2.5751e+07      -     -    0s
2025-10-12 00:04:24,879 - INFO - *  151   205              18    2.598511e+07 2.5771e+07  0.82%   5.8    0s
2025-10-12 00:04:24,910 - INFO - *  373   288              17    2.591750e+07 2.5771e+07  0.56%   4.9    0s
2025-10-12 00:04:24,929 - INFO - *  671   361              19    2.586058e+07 2.5798e+07  0.24%   3.2    0s
2025-10-12 00:04:24,931 - INFO - 
2025-10-12 00:04:24,931 - INFO - Cutting planes:
2025-10-12 00:04:24,931 - INFO -   Gomory: 1
2025-10-12 00:04:24,931 - INFO -   Cover: 28
2025-10-12 00:04:24,931 - INFO -   GUB cover: 3
2025-10-12 00:04:24,931 - INFO - 
2025-10-12 00:04:24,931 - INFO - Explored 855 nodes (2896 simplex iterations) in 0.29 seconds (0.20 work units)
2025-10-12 00:04:24,931 - INFO - Thread count was 12 (of 96 available processors)
2025-10-12 00:04:24,931 - INFO - 
2025-10-12 00:04:24,932 - INFO - Solution count 3: 2.58606e+07 2.59175e+07 2.59851e+07 
2025-10-12 00:04:24,932 - INFO - 
2025-10-12 00:04:24,932 - INFO - Optimal solution found (tolerance 1.00e-04)
2025-10-12 00:04:24,932 - INFO - Best objective 2.586058400000e+07, best bound 2.586058400000e+07, gap 0.0000%
2025-10-12 00:04:24,944 - INFO - 规划前的显存GB：18.0
2025-10-12 00:04:24,944 - INFO - 规划后的显存GB：15.146621227264404
2025-10-12 00:04:24,944 - INFO - ✅ 最优策略：[0, 1, 1, 1, 1, 1, 1, 0, 0, 0, 1, 0, 0, 0, 0, 0]
2025-10-12 00:04:24,944 - INFO - 📌 checkpoint 的欧氏长度:, [128, 2400]
2025-10-12 00:04:24,945 - INFO - 📌 checkpoint 的余弦长度:, [128, 452, 1101, 1426, 1750, 2075, 2400]
2025-10-12 00:04:24,945 - INFO - 💾 最终显存峰值：%.2f MB % 27442.5994720459
2025-10-12 00:04:24,962 - INFO - Epoch 2 completed in 145.436178 seconds
2025-10-12 00:04:24,962 - INFO - torch.cuda.max_memory_reserved() : 15.2421875
2025-10-12 00:06:22,238 - INFO - Epoch 3 completed in 117.275175 seconds
2025-10-12 00:06:22,239 - INFO - 
====================== [第1个 Epoch 收集统计数据] ======================
2025-10-12 00:06:22,239 - INFO - 
🔍 EUCLIDEAN modules:
2025-10-12 00:06:22,239 - INFO - [Shapelet 128] forward_avg=0.003238s over 278 calls | peak=545.46MB | final=0.00MB
2025-10-12 00:06:22,239 - INFO - [Shapelet 452] forward_avg=0.008130s over 278 calls | peak=1696.97MB | final=0.00MB
2025-10-12 00:06:22,239 - INFO - [Shapelet 777] forward_avg=0.011980s over 278 calls | peak=2541.23MB | final=0.00MB
2025-10-12 00:06:22,239 - INFO - [Shapelet 1101] forward_avg=0.014347s over 278 calls | peak=3076.86MB | final=0.00MB
2025-10-12 00:06:22,239 - INFO - [Shapelet 1426] forward_avg=0.015454s over 278 calls | peak=3302.11MB | final=0.00MB
2025-10-12 00:06:22,239 - INFO - [Shapelet 1750] forward_avg=0.014931s over 278 calls | peak=3220.47MB | final=0.00MB
2025-10-12 00:06:22,239 - INFO - [Shapelet 2075] forward_avg=0.013196s over 278 calls | peak=2830.50MB | final=0.00MB
2025-10-12 00:06:22,239 - INFO - [Shapelet 2400] forward_avg=0.009777s over 278 calls | peak=2129.31MB | final=0.00MB
2025-10-12 00:06:22,239 - INFO - 
🔍 COSINE modules:
2025-10-12 00:06:22,239 - INFO - [Shapelet 128] forward_avg=0.002273s over 278 calls | peak=360.86MB | final=0.00MB
2025-10-12 00:06:22,239 - INFO - [Shapelet 452] forward_avg=0.005133s over 278 calls | peak=1127.04MB | final=0.00MB
2025-10-12 00:06:22,239 - INFO - [Shapelet 777] forward_avg=0.007568s over 278 calls | peak=1688.97MB | final=0.00MB
2025-10-12 00:06:22,239 - INFO - [Shapelet 1101] forward_avg=0.008993s over 278 calls | peak=2044.93MB | final=0.00MB
2025-10-12 00:06:22,239 - INFO - [Shapelet 1426] forward_avg=0.009752s over 278 calls | peak=2194.08MB | final=0.00MB
2025-10-12 00:06:22,239 - INFO - [Shapelet 1750] forward_avg=0.009425s over 278 calls | peak=2138.55MB | final=0.00MB
2025-10-12 00:06:22,239 - INFO - [Shapelet 2075] forward_avg=0.008525s over 278 calls | peak=1876.87MB | final=0.00MB
2025-10-12 00:06:22,239 - INFO - [Shapelet 2400] forward_avg=0.006350s over 278 calls | peak=1408.89MB | final=0.00MB
2025-10-12 00:06:22,239 - INFO - 
🔍 CROSS modules:
2025-10-12 00:06:22,239 - INFO - [Shapelet 128] forward_avg=0.000648s over 278 calls
2025-10-12 00:06:22,239 - INFO - [Shapelet 452] forward_avg=0.001082s over 278 calls
2025-10-12 00:06:22,239 - INFO - [Shapelet 777] forward_avg=0.001651s over 278 calls
2025-10-12 00:06:22,239 - INFO - [Shapelet 1101] forward_avg=0.002327s over 278 calls
2025-10-12 00:06:22,240 - INFO - [Shapelet 1426] forward_avg=0.003034s over 278 calls
2025-10-12 00:06:22,240 - INFO - [Shapelet 1750] forward_avg=0.003686s over 278 calls
2025-10-12 00:06:22,240 - INFO - [Shapelet 2075] forward_avg=0.004347s over 278 calls
2025-10-12 00:06:22,240 - INFO - [Shapelet 2400] forward_avg=0.004935s over 278 calls
2025-10-12 00:06:22,240 - INFO - 
💾 模型第一次反向传播阶段的显存峰值（所有模块中的最大值）: 15224.54 MB
2025-10-12 00:06:22,240 - INFO - 
💾 模型初始显存: 104.49 MB
2025-10-12 00:06:22,240 - INFO - =======================================================================

2025-10-12 00:06:22,240 - INFO - torch.cuda.max_memory_reserved() : 21.375
2025-10-12 00:08:22,402 - INFO - Epoch 4 completed in 120.161666 seconds
2025-10-12 00:08:22,403 - INFO - torch.cuda.max_memory_reserved() : 21.375
2025-10-12 00:10:21,926 - INFO - Epoch 5 completed in 119.522929 seconds
2025-10-12 00:10:21,927 - INFO - torch.cuda.max_memory_reserved() : 21.375
2025-10-12 00:12:20,722 - INFO - Epoch 6 completed in 118.794165 seconds
2025-10-12 00:12:20,722 - INFO - torch.cuda.max_memory_reserved() : 21.375
2025-10-12 00:14:19,811 - INFO - Epoch 7 completed in 119.087664 seconds
2025-10-12 00:14:19,811 - INFO - torch.cuda.max_memory_reserved() : 21.375
2025-10-12 00:16:18,835 - INFO - Epoch 8 completed in 119.023382 seconds
2025-10-12 00:16:18,835 - INFO - torch.cuda.max_memory_reserved() : 21.375
2025-10-12 00:18:17,652 - INFO - Epoch 9 completed in 118.816534 seconds
2025-10-12 00:18:17,653 - INFO - torch.cuda.max_memory_reserved() : 21.375
2025-10-12 00:20:15,255 - INFO - Epoch 10 completed in 117.601099 seconds
2025-10-12 00:20:48,272 - INFO - torch.cuda.max_memory_reserved() : 21.375
2025-10-12 00:20:48,272 - INFO - !!!采用策略后的几个epoch 平均时间:118.78532665967941
2025-10-12 00:20:48,273 - INFO - 



